(set-option :produce-models true)
(set-logic QF_UF)
(declare-fun p87() Bool)
(declare-fun p82() Bool)
(declare-fun p63() Bool)
(declare-fun p72() Bool)
(declare-fun p88() Bool)
(declare-fun p85() Bool)
(declare-fun p31() Bool)
(declare-fun p10() Bool)
(declare-fun p48() Bool)
(declare-fun p43() Bool)
(declare-fun p37() Bool)
(declare-fun p44() Bool)
(declare-fun p2() Bool)
(declare-fun p22() Bool)
(declare-fun p95() Bool)
(declare-fun p86() Bool)
(declare-fun p0() Bool)
(declare-fun p91() Bool)
(declare-fun p62() Bool)
(declare-fun p61() Bool)
(declare-fun p73() Bool)
(declare-fun p15() Bool)
(declare-fun p46() Bool)
(declare-fun p58() Bool)
(declare-fun p30() Bool)
(declare-fun p94() Bool)
(declare-fun p64() Bool)
(declare-fun p13() Bool)
(declare-fun p16() Bool)
(declare-fun p65() Bool)
(declare-fun p79() Bool)
(declare-fun p50() Bool)
(declare-fun p28() Bool)
(declare-fun p90() Bool)
(declare-fun p98() Bool)
(declare-fun p12() Bool)
(declare-fun p97() Bool)
(declare-fun p71() Bool)
(declare-fun p41() Bool)
(declare-fun p29() Bool)
(declare-fun p84() Bool)
(declare-fun p33() Bool)
(declare-fun p32() Bool)
(declare-fun p47() Bool)
(declare-fun p51() Bool)
(declare-fun p54() Bool)
(declare-fun p4() Bool)
(declare-fun p1() Bool)
(declare-fun p81() Bool)
(declare-fun p11() Bool)
(declare-fun p9() Bool)
(declare-fun p19() Bool)
(declare-fun p80() Bool)
(declare-fun p56() Bool)
(declare-fun p39() Bool)
(declare-fun p27() Bool)
(declare-fun p24() Bool)
(declare-fun p77() Bool)
(declare-fun p59() Bool)
(declare-fun p78() Bool)
(declare-fun p70() Bool)
(declare-fun p57() Bool)
(declare-fun p42() Bool)
(declare-fun p26() Bool)
(declare-fun p25() Bool)
(declare-fun p6() Bool)
(declare-fun p45() Bool)
(declare-fun p35() Bool)
(declare-fun p69() Bool)
(declare-fun p75() Bool)
(declare-fun p52() Bool)
(declare-fun p18() Bool)
(declare-fun p14() Bool)
(declare-fun p34() Bool)
(declare-fun p20() Bool)
(declare-fun p93() Bool)
(declare-fun p49() Bool)
(declare-fun p60() Bool)
(declare-fun p40() Bool)
(declare-fun p38() Bool)
(declare-fun p99() Bool)
(declare-fun p36() Bool)
(declare-fun p76() Bool)
(declare-fun p89() Bool)
(declare-fun p8() Bool)
(declare-fun p55() Bool)
(declare-fun p67() Bool)
(declare-fun p96() Bool)
(declare-fun p83() Bool)
(declare-fun p3() Bool)
(declare-fun p5() Bool)
(declare-fun p66() Bool)
(declare-fun p21() Bool)
(declare-fun p92() Bool)
(declare-fun p7() Bool)
(declare-fun p53() Bool)
(declare-fun p74() Bool)
(declare-fun p17() Bool)
(declare-fun p23() Bool)
(declare-fun p68() Bool)
(assert
(and (or (not p87) p82 p63) (or p72 (not p88) (not p85)) (or p31 (not p10) (not p48)) (or p43 p37 (not p88)) (or (not p44) p2 p22) (or p95 p86 (not p0)) (or (not p91) (not p62) p61) (or p73 (not p85) (not p37)) (or (not p63) p15 (not p46)) (or p58 p30 (not p94)) (or (not p64) p13 (not p16)) (or p65 (not p79) p13) (or p50 p28 (not p90)) (or p98 (not p31) p98) (or p95 (not p58) p12) (or (not p72) p97 p71) (or (not p41) p29 (not p84)) (or (not p33) (not p32) p82) (or (not p47) p44 p94) (or (not p63) (not p51) (not p71)) (or p54 p62 (not p91)) (or (not p30) p79 p4) (or (not p44) p22 (not p31)) (or p61 p1 p2) (or (not p81) (not p97) (not p11)) (or p9 p29 p19) (or p80 (not p56) (not p98)) (or (not p37) (not p79) (not p37)) (or p39 (not p44) (not p27)) (or p90 (not p30) (not p79)) (or (not p87) p48 p24) (or p27 p77 (not p22)) (or (not p28) p94 (not p37)) (or p80 p59 p78) (or (not p19) p43 (not p95)) (or (not p70) (not p57) p28) (or (not p91) (not p70) (not p42)) (or p79 (not p26) p80) (or (not p25) p54 p42) (or (not p79) p72 (not p6)) (or (not p46) p90 p13) (or (not p97) p45 (not p85)) (or p2 (not p56) (not p71)) (or (not p85) (not p86) p35) (or p71 (not p26) p13) (or (not p10) p31 (not p62)) (or p48 (not p65) (not p69)) (or (not p28) p70 p94) (or p90 p44 p50) (or (not p75) p52 (not p82)) (or p50 (not p18) p78) (or p9 p14 p81) (or p75 p9 (not p13)) (or (not p34) p71 (not p20)) (or (not p80) p56 (not p33)) (or p93 p20 (not p63)) (or p71 p86 (not p49)) (or p60 p18 (not p79)) (or p97 p20 (not p40)) (or p81 p46 (not p95)) (or (not p14) (not p97) (not p84)) (or (not p32) (not p87) p97) (or p38 (not p20) p24) (or (not p42) (not p60) (not p79)) (or (not p99) (not p99) p19) (or p63 p63 (not p97)) (or p35 (not p52) (not p14)) (or (not p61) p36 p11) (or p76 p26 (not p76)) (or (not p14) p29 (not p56)) (or (not p41) p93 (not p19)) (or p95 (not p2) p27) (or (not p2) p13 p89) (or (not p52) (not p84) p2) (or p8 (not p95) p84) (or p28 p30 p88) (or p22 (not p20) (not p18)) (or (not p44) p44 p34) (or p52 p22 p44) (or (not p61) (not p43) (not p56)) (or (not p99) (not p39) (not p42)) (or (not p43) (not p14) (not p20)) (or (not p46) p26 p59) (or p12 (not p59) (not p28)) (or p55 p55 (not p91)) (or (not p95) p16 p91) (or p28 p56 p67) (or p88 p36 p63) (or p96 p87 p24) (or p14 (not p42) (not p40)) (or (not p18) p89 (not p43)) (or (not p46) (not p10) p25) (or p0 p4 (not p32)) (or (not p1) p51 p42) (or p89 p54 (not p20)) (or (not p16) (not p20) p14) (or p49 p91 p83) (or p44 (not p95) p96) (or p3 p50 p89) (or p88 p45 p89) (or p3 (not p97) (not p61)) (or p54 (not p34) p40) (or p72 (not p32) (not p26)) (or p5 p80 (not p33)) (or p64 p13 p64) (or (not p19) p66 p82) (or (not p19) (not p21) (not p41)) (or (not p58) (not p79) (not p19)) (or (not p98) (not p27) (not p44)) (or (not p15) p91 (not p58)) (or p57 (not p47) (not p61)) (or (not p56) p86 p34) (or (not p92) p14 (not p2)) (or (not p19) (not p76) p7) (or (not p0) p13 p10) (or (not p30) (not p4) (not p40)) (or (not p7) p4 (not p10)) (or p79 (not p52) p52) (or (not p9) p90 p19) (or p3 (not p16) (not p82)) (or p53 p22 p74) (or (not p96) p11 (not p81)) (or p27 (not p36) (not p55)) (or p13 (not p93) p39) (or p24 (not p53) p31) (or p25 p67 (not p92)) (or p52 (not p89) p13) (or (not p53) p38 p77) (or p73 (not p16) (not p79)) (or (not p45) (not p93) p14) (or (not p17) p1 p11) (or p92 (not p32) p78) (or p84 p28 p13) (or (not p45) (not p57) p49) (or p86 p31 p37) (or p97 p47 p67) (or (not p44) (not p2) p36) (or (not p45) p33 p63) (or (not p73) p39 (not p40)) (or (not p64) (not p79) (not p71)) (or (not p75) p50 (not p92)) (or p40 p11 (not p85)) (or (not p72) p19 (not p12)) (or p43 (not p9) (not p23)) (or p3 p36 (not p64)) (or (not p73) (not p44) p14) (or p35 (not p86) (not p7)) (or p67 p81 p21) (or (not p48) (not p68) (not p77)) (or p3 p77 p77) (or (not p87) (not p17) (not p76)) (or (not p66) p49 p46) (or p14 (not p15) (not p76)) (or p73 (not p38) (not p22)) (or p24 p76 p76) (or (not p85) (not p59) (not p17)) (or (not p72) (not p61) (not p42)) (or p21 p42 p43) (or p6 p84 (not p90)) (or (not p41) p64 p87) (or p44 p87 p33) (or (not p23) (not p87) p59) (or p71 p72 (not p22)) (or (not p52) (not p55) p94) (or (not p31) p80 p35) (or (not p6) p19 p43) (or (not p71) (not p19) (not p84)) (or (not p66) (not p62) p42) (or (not p20) p44 p63) (or (not p83) (not p55) (not p91)) (or p1 (not p61) p89) (or p5 (not p84) p22) (or p61 p25 (not p45)) (or p45 p28 p52) (or p77 (not p49) p1) (or (not p34) (not p70) (not p19)) (or (not p29) (not p75) (not p94)) (or (not p18) (not p28) p95) (or p63 (not p70) (not p94)) (or (not p38) p7 p94) (or p40 (not p32) p29) (or p76 p71 (not p51)) (or p70 (not p95) (not p75)) (or p21 p44 (not p58)) (or (not p26) p4 p46) (or (not p31) (not p63) (not p71)) (or (not p38) (not p30) p34) (or (not p82) (not p98) (not p83)) (or p95 (not p83) p48) (or p79 (not p73) p5) (or p52 p57 (not p71)) (or (not p68) p60 p17) (or (not p34) (not p60) (not p51)) (or (not p2) p51 (not p47)) (or p16 p43 (not p80)) (or (not p69) (not p24) (not p28)) (or (not p84) (not p62) (not p44)) (or (not p94) p63 (not p22)) (or p26 p78 (not p29)) (or p6 (not p69) (not p12)) (or p35 (not p3) (not p16)) (or (not p76) (not p78) (not p61)) (or (not p15) (not p38) p54) (or p82 p54 p94) (or p23 p9 (not p51)) (or (not p20) (not p75) (not p23)) (or p95 (not p79) p21) (or p95 (not p63) (not p39)) (or (not p84) (not p65) p22) (or (not p33) (not p34) p42) (or (not p48) p20 (not p39)) (or (not p63) p62 p89) (or p69 (not p79) (not p86)) (or (not p93) p33 (not p73)) (or (not p61) (not p63) p75) (or p0 p50 p67) (or p26 (not p27) (not p56)) (or (not p11) p50 (not p45)) (or p60 p81 (not p56)) (or (not p29) (not p19) p61) (or p65 (not p99) (not p10)) (or p57 p19 (not p76)) (or (not p78) (not p43) p60) (or (not p30) (not p21) p57) (or p77 (not p26) (not p99)) (or (not p9) (not p35) p70) (or p41 (not p47) p66) (or p18 p68 (not p6)) (or p19 (not p94) p7) (or (not p7) p42 (not p25)) (or p93 (not p89) p46) (or (not p11) p36 (not p64)) (or (not p27) p42 (not p39)) (or (not p1) (not p8) (not p37)) (or p60 (not p42) p5) (or (not p98) (not p19) (not p96)) (or p39 (not p89) p16) (or p84 (not p91) p61) (or p56 p8 p35) (or (not p17) p27 (not p66)) (or p48 (not p87) (not p39)) (or p43 p39 (not p65)) (or p14 (not p85) p89) (or p83 (not p74) (not p69)) (or p17 (not p61) p43) (or (not p86) p83 p5) (or p33 p69 p96) (or p79 (not p10) p7) (or (not p65) p98 (not p70)) (or p17 p70 (not p66)) (or (not p14) p2 p27) (or p89 (not p85) p86) (or p18 p30 p64) (or p6 (not p20) (not p20)) (or p64 p94 (not p10)) (or p18 p99 (not p83)) (or p72 p42 p83) (or (not p69) p64 (not p92)) (or p84 (not p28) p68) (or p11 p70 p15) (or (not p92) p78 (not p84)) (or p78 (not p95) p85) (or p98 (not p21) p58) (or (not p74) p19 (not p72)) (or p80 p34 p75) (or (not p10) p42 p99) (or p35 (not p67) (not p63)) (or (not p89) (not p44) (not p48)) (or p36 (not p53) p81) (or p65 p56 p31) (or (not p94) p80 (not p4)) (or (not p28) (not p15) (not p93)) (or (not p60) p52 (not p72)) (or (not p80) p39 p74) (or p46 p0 (not p69)) (or (not p57) p54 p57) (or p78 (not p91) p76) (or (not p63) p38 (not p8)) (or (not p66) (not p17) p90) (or p22 p75 (not p30)) (or p64 (not p95) p57) (or p68 (not p49) (not p88)) (or p21 (not p12) (not p87)) (or p91 (not p2) (not p84)) (or (not p74) (not p2) (not p65)) (or (not p90) p85 (not p19)) (or (not p78) (not p37) (not p88)) (or (not p54) p47 (not p14)) (or p53 p52 p2) (or p49 p50 (not p54)) (or p27 p85 p45) (or (not p93) p71 (not p34)) (or (not p67) p0 p41) (or p64 (not p42) p90) (or (not p82) (not p44) (not p6)) (or p47 (not p15) (not p68)) (or (not p87) p95 (not p90)) (or (not p23) (not p24) p75) (or p96 (not p58) p56) (or p24 (not p20) p2) (or p42 (not p53) p89) (or p35 (not p79) p61) (or p54 (not p94) p6) (or p63 (not p49) p91) (or (not p81) p2 (not p55)) (or (not p3) (not p42) p75) (or p23 p74 (not p71)) (or (not p41) (not p51) (not p63)) (or p27 (not p16) p38) (or (not p24) p89 p41) (or (not p40) p15 (not p38)) (or p73 (not p47) (not p43)) (or (not p70) (not p30) (not p67)) (or p29 (not p98) (not p58)) (or p28 (not p24) (not p8)) (or (not p22) (not p3) p1) (or (not p21) p13 (not p69)) (or (not p77) (not p29) (not p11)) (or (not p27) (not p86) p54) (or (not p77) p39 p86) (or p69 p52 (not p7)) (or p74 (not p33) p55) (or (not p62) p23 (not p82)) (or (not p83) p87 p80) (or (not p24) p71 p60) (or p12 p72 p47) (or p56 p80 p9) (or (not p27) p27 p84) (or p96 p65 (not p63)) (or (not p7) (not p94) p69) (or (not p16) (not p93) (not p4)) (or (not p94) p57 p90) (or p25 p6 (not p21)) (or (not p46) (not p28) (not p98)) (or (not p80) (not p12) p55) (or (not p8) (not p38) p73) (or (not p71) p43 (not p91)) (or p97 (not p36) (not p22)) (or p50 (not p54) p43) (or p92 (not p40) (not p85)) (or (not p71) (not p8) (not p5)) (or p5 p17 (not p73)) (or (not p94) (not p87) p58) (or p79 p2 p58) (or (not p48) p45 p85) (or p47 (not p68) p84) (or p51 p10 p14) (or p42 (not p88) (not p19)) (or p3 (not p51) p9) (or p91 p85 (not p72)) (or p28 p96 p17) (or p94 (not p57) p52) (or (not p31) p2 p4) (or p76 (not p93) (not p11)) (or (not p83) (not p41) p8) (or (not p42) p45 (not p90)) (or (not p99) (not p11) p29) (or (not p86) (not p41) p61) (or p14 p99 (not p87)) (or (not p24) p70 p57) (or p82 p75 p30) (or (not p87) p36 (not p38)) (or p33 (not p0) p82) (or p31 (not p88) (not p40)) (or (not p5) (not p23) (not p8)) (or p98 p9 (not p15)) (or p7 p53 (not p74)) (or (not p5) (not p67) p78) (or p48 p16 (not p71)) (or p73 (not p33) p22) (or (not p78) (not p25) p56) (or (not p9) (not p43) (not p32)) (or p24 (not p47) (not p12)) (or p91 p97 (not p24)) (or (not p54) (not p77) (not p45)) (or (not p54) (not p74) p92) (or p18 p14 p52) (or (not p99) (not p77) p6) (or p78 (not p49) (not p96)) (or p72 p52 p64) (or (not p36) p86 (not p17)) (or (not p41) (not p3) (not p88)) (or p17 (not p71) (not p12)) (or p86 (not p15) (not p99)) (or (not p59) p33 (not p12)) (or p67 p61 (not p22)) (or p20 p32 (not p60)) (or p13 p46 (not p46)) (or p60 p89 (not p73)) (or (not p62) (not p15) (not p99)) (or p38 p11 p76) (or (not p7) (not p46) (not p51)) (or (not p58) p94 p87) (or (not p10) (not p46) p77) (or (not p61) (not p18) p55) (or (not p84) p45 (not p20)) (or (not p38) (not p76) p44) (or (not p28) (not p0) p68) (or (not p89) (not p29) (not p8)) (or p43 (not p15) (not p10)) (or (not p75) (not p93) (not p61)) (or (not p57) (not p68) (not p15)) (or p71 (not p11) (not p44)) (or p37 p29 (not p20)) (or (not p80) (not p78) (not p63)) (or (not p65) (not p1) p61) (or p62 (not p93) p0) (or p76 (not p69) (not p60)) (or p90 (not p66) (not p50)) (or p5 p71 (not p80)) (or (not p10) p65 p3) (or (not p59) (not p28) (not p41)) (or p80 (not p48) p24) (or (not p77) (not p50) p48) (or p30 (not p91) (not p31)) (or (not p74) p59 p44) (or p2 p94 p55) (or (not p6) p43 (not p72)) (or (not p40) (not p27) p81) (or p16 (not p34) (not p61)))
)
(check-sat)
(get-model)
